; COMMAND-LINE: --solve-int-as-bag
; EXPECT: sat
; DISABLE-TESTER: model
(set-logic ALL)
(set-info :status sat)
(set-option :incremental false)
(declare-fun x0 () Int)
(declare-fun x1 () Int)
(declare-fun x2 () Int)
(declare-fun x3 () Int)
(declare-fun x4 () Int)
(assert (>= x0 1))
(assert (>= x1 1))
(assert (>= x2 1))
(assert (>= x3 1))
(assert (>= x4 1))
(assert (distinct x1 x0))
(assert (distinct x2 x0))
(assert (distinct x3 x0))
(assert (distinct x4 x0))
(assert (= (* (* (* (* x0 x1) x2) x3) x4) x0))
(check-sat)
